Route #1: 1 29 16 8 21 54 13 49 57 15 6 14 1
Route #2: 1 53 37 17 38 23 45 3 39 1
Route #3: 1 19 31 2 10 55 43 4 42 22 32 1
Route #4: 1 56 27 60 34 59 18 51 35 61 1
Route #5: 1 52 11 9 44 30 62 33 7 1
Route #6: 1 20 47 46 48 25 1
Route #7: 1 26 12 50 36 5 24 28 40 1
Route #8: 1 58 41 1
cost: 1452
